%mem=6GB
%chk=C:\Users\al6323\OneDrive - Imperial College London\Desktop\TSR20251115\product_opt+freq.chk
%nprocshared=8
# opt=(calcfc,tight,cartesian,maxcycles=200,maxstep=2) freq rpm6 nosymm
geom=connectivity scf=(xqc,verytight)

Title Card Required

0 1
 C                 -0.17184002   -1.10586948    0.15950848
 C                 -1.33200547   -1.14263748    0.92113702
 C                 -2.47091063   -0.15277694    0.65872265
 C                 -2.32005975    0.76486734   -0.33859346
 C                 -1.01937455    0.80608870   -1.19247080
 C                 -0.00448679   -0.07461096   -0.96044193
 C                  0.86150733   -2.19401652    0.58272190
 C                 -1.30570086   -2.26269975    2.00545658
 H                 -3.36544352   -0.18068997    1.24517962
 H                 -3.10493957    1.46466109   -0.53646310
 H                 -0.92043389    1.53389252   -1.97055328
 H                  0.88930390   -0.04584839   -1.54798846
 H                  1.49979921   -1.81167991    1.35168366
 H                 -0.87076298   -1.88680784    2.90791673
 S                 -0.25271704   -3.38834370    1.19144744
 H                  1.48283233   -2.56389088   -0.20597842
 H                 -2.25894511   -2.68247540    2.25043373
 O                 -0.96394066   -4.03025938    0.07707346
 O                  0.40319506   -4.60247087    2.13196566

 1 2 2.0 6 1.0 7 1.0
 2 3 1.0 8 1.0
 3 4 2.0 9 1.0
 4 5 1.0 10 1.0
 5 6 2.0 11 1.0
 6 12 1.0
 7 13 1.0 15 1.0 16 1.0
 8 14 1.0 15 1.0 17 1.0
 9
 10
 11
 12
 13
 14
 15 18 2.0 19 1.0
 16
 17
 18
 19

