%chk=C:\Users\al6323\OneDrive - Imperial College London\Desktop\TSR20251115\Exercise 3\cheletropic reaction\TS_Berny_IRC_product.chk
# opt=tight freq rpm6 nosymm geom=connectivity scf=(tight,xqc)

Title Card Required

0 1
 C                  0.44764662    0.74444624   -0.55897398
 C                 -0.76753022    0.66996603    0.17053550
 C                 -1.66915794    1.73151936    0.13773994
 C                 -1.36512857    2.86960917   -0.62322394
 C                 -0.17009613    2.94285511   -1.34063892
 C                  0.74364756    1.87940463   -1.31074286
 C                  1.32827813   -0.45401080   -0.45813479
 C                 -0.98155300   -0.59558392    0.92853103
 H                 -2.60251923    1.67919163    0.69520000
 H                 -2.06979045    3.69994699   -0.65269798
 H                  0.05779756    3.83035143   -1.92995438
 H                  1.67404788    1.94131006   -1.87215731
 H                  2.30985576   -0.20196352   -0.00532994
 H                 -1.06318656   -0.40870209    2.01961570
 S                  0.41315552   -1.62371374    0.52243690
 H                  1.58786291   -0.85617931   -1.45944416
 H                 -1.94771349   -1.07288044    0.66307641
 O                 -0.02536783   -2.71494464   -0.31944178
 O                  1.15491436   -1.92549474    1.72720712

 1 2 1.5 6 1.5 7 1.0
 2 3 1.5 8 1.0
 3 4 1.5 9 1.0
 4 5 1.5 10 1.0
 5 6 1.5 11 1.0
 6 12 1.0
 7 13 1.0 15 1.0 16 1.0
 8 14 1.0 15 1.0 17 1.0
 9
 10
 11
 12
 13
 14
 15 18 2.0 19 2.0
 16
 17
 18
 19

