%mem=6GB
%chk=C:\Users\al6323\OneDrive - Imperial College London\Desktop\TSR20251115\TS_Berny_opt+freq.chk
%nprocshared=8
# opt=(calcfc,tight,ts,noeigen) freq rpm6 nosymm geom=connectivity
scf=(tight,xqc)

Title Card Required

0 1
 C                 -0.22775612   -1.16543420    0.04331929
 C                 -1.41373535   -1.20303814    0.82186006
 C                 -2.36009814   -0.18735561    0.70417160
 C                 -2.12889795    0.86889641   -0.18881961
 C                 -0.96246441    0.90588118   -0.95452347
 C                 -0.00520970   -0.11269263   -0.84169879
 C                  0.71133235   -2.30392082    0.25240058
 C                 -1.54416235   -2.37543258    1.73302856
 H                 -3.27125954   -0.21162486    1.29904013
 H                 -2.86739649    1.66428872   -0.28264572
 H                 -0.79073845    1.73014095   -1.64585630
 H                  0.90275318   -0.07928097   -1.44099886
 H                  1.71333610   -1.95239196    0.57545655
 H                 -1.66103113   -2.05938200    2.79057541
 S                  0.35738420   -4.13092759    1.76790940
 H                  0.90847727   -2.84941402   -0.69391566
 H                 -2.46587241   -2.95639798    1.52118064
 O                  0.00563815   -5.40052009    1.17075598
 O                  1.15098605   -4.12398948    2.97717654

 1 2 1.5 6 1.0 7 1.5
 2 3 1.0 8 1.5
 3 4 2.0 9 1.0
 4 5 1.0 10 1.0
 5 6 2.0 11 1.0
 6 12 1.0
 7 13 1.0 15 0.5 16 1.0
 8 14 1.0 15 0.5 17 1.0
 9
 10
 11
 12
 13
 14
 15 18 2.0 19 2.0
 16
 17
 18
 19

