%chk=C:\Users\al6323\OneDrive - Imperial College London\Desktop\TSR20251115\TS_Berny_IRC.chk
# irc=(calcall,maxpoints=100) rpm6 nosymm geom=connectivity scf=(tight,xqc)

Title Card Required

0 1
 C                  0.05544790   -1.04642024    0.43343643
 C                 -1.19445022   -1.12303356    1.18378609
 C                 -2.35298454   -0.41345601    0.65649524
 C                 -2.27416998    0.32191039   -0.47876281
 C                 -1.03442448    0.39790438   -1.22301537
 C                  0.06759438   -0.26507989   -0.79664398
 C                  1.10737615   -1.86302013    0.77296661
 C                 -1.31254222   -2.01134874    2.22571596
 H                 -3.28102620   -0.48629674    1.22332502
 H                 -3.13309425    0.86934737   -0.86560388
 H                 -1.02374301    0.99864634   -2.13190431
 H                  1.00560809   -0.22353586   -1.35005830
 H                  1.36134410   -2.13803047    1.79229277
 H                 -0.50904501   -2.25266256    2.91514838
 S                 -0.32888296   -3.73841968    0.93848679
 H                  1.93924825   -2.01796538    0.09543669
 H                 -2.28269005   -2.27675420    2.62999192
 O                 -1.03400915   -4.02400165   -0.26518448
 O                  0.27572745   -4.65038091    1.85250825

 1 2 1.5 6 1.0 7 1.5
 2 3 1.0 8 1.5
 3 4 2.0 9 1.0
 4 5 1.0 10 1.0
 5 6 2.0 11 1.0
 6 12 1.0
 7 13 1.0 15 0.5 16 1.0
 8 14 1.0 15 0.5 17 1.0
 9
 10
 11
 12
 13
 14
 15 18 2.0 19 2.0
 16
 17
 18
 19

