%mem=6GB
%chk=C:\Users\al6323\OneDrive - Imperial College London\Desktop\TSR20251114\o-xylyene_opt+freq.chk
%nprocshared=8
# opt=(calcfc,tight,cartesian,maxcycles=200,maxstep=5) freq rpm6 nosymm
geom=connectivity scf=(xqc,verytight)

Title Card Required

0 1
 C                 -3.06916639    0.14699957    2.21830982
 C                 -1.53673468    0.18934986    2.15319689
 C                 -0.84951138    1.55420426    2.16715590
 C                 -1.72864003    2.80934136    2.24553879
 C                 -3.08378842    2.69107748    2.30052476
 C                 -3.78165315    1.30508842    2.28635231
 H                 -3.57848642   -0.79397215    2.21022703
 H                 -3.68275924    3.57605167    2.35488121
 H                 -4.84969629    1.25846462    2.33118625
 C                 -0.81175242   -0.95359792    2.08509283
 H                 -1.30741881   -1.90182544    2.07618308
 H                 -1.27601806    3.77882683    2.25699615
 C                  0.50091638    1.65341714    2.11175988
 H                  1.10055995    0.76889984    2.05738442
 H                  0.96750488    2.61626809    2.12239738
 H                  0.25632469   -0.90778636    2.04023094

 1 2 1.0 6 2.0 7 1.0
 2 3 1.0 10 2.0
 3 4 1.0 13 2.0
 4 5 2.0 12 1.0
 5 6 1.0 8 1.0
 6 9 1.0
 7
 8
 9
 10 11 1.0 16 1.0
 11
 12
 13 14 1.0 15 1.0
 14
 15
 16

