%chk=C:\Users\al6323\OneDrive - Imperial College London\Desktop\TSR20251114\product_endo_opt+freq.chk
# opt=(calcfc,tight,maxstep=5) freq rpm6 nosymm geom=connectivity scf

Title Card Required

0 1
 C                 -5.60981527   -1.65431419    0.25421917
 C                 -4.28213829   -1.74820218   -0.24281309
 C                 -3.63204799   -0.55778697   -0.43439684
 C                 -4.25687170    0.70661264   -0.15862148
 C                 -5.53119096    0.80129360    0.32517941
 C                 -6.21020220   -0.43101664    0.52963702
 H                 -1.91313126   -0.20119192   -1.83470416
 H                 -6.16615344   -2.57697003    0.42112349
 H                 -3.83297840   -2.71297607   -0.45378598
 C                 -2.35488562    0.06838625   -0.88218449
 C                 -3.02691478    1.48099435   -0.60784079
 H                 -6.01371922    1.74900713    0.54697532
 H                 -7.23002519   -0.40450132    0.91229543
 H                 -3.12066794    2.26560398   -1.35740153
 O                 -2.17657089    1.90142426    0.47095954
 S                 -1.22708813    0.42222053    0.55438809
 O                 -1.27493779   -0.53587297    1.92138014

 1 2 2.0 6 1.0 8 1.0
 2 3 1.0 9 1.0
 3 4 2.0 10 1.0
 4 5 1.0 11 1.0
 5 6 2.0 12 1.0
 6 13 1.0
 7 10 1.0
 8
 9
 10 16 1.0
 11 14 1.0 15 1.0
 12
 13
 14
 15 16 1.0
 16 17 1.0
 17

