%chk=C:\Users\al6323\OneDrive - Imperial College London\Desktop\TSR20251114\product_exo_opt+freq.chk
# opt=(calcfc,tight,maxstep=5) freq rpm6 nosymm geom=connectivity
scf=(xqc,verytight)

Title Card Required

0 1
 C                 -5.56946095   -1.62026617   -0.02505600
 C                 -4.17045810   -1.70713115    0.10980857
 C                 -3.46415194   -0.51645055    0.17535296
 C                 -4.14522302    0.73356767    0.14522192
 C                 -5.51323148    0.82265999    0.00042318
 C                 -6.22708920   -0.38958714   -0.09226398
 H                 -1.46282555   -0.47231867    1.08850879
 H                 -6.15130980   -2.54145223   -0.08130688
 H                 -3.67033470   -2.66908644    0.16298015
 C                 -2.07217949   -0.11984784    0.27702783
 C                 -3.03003495    1.69578229    0.39249547
 H                 -6.03011916    1.77859435   -0.03704410
 H                 -7.30876179   -0.36133452   -0.20762478
 H                 -3.00695188    2.21897508    1.35529507
 O                 -2.27471832    2.18194423   -0.54687204
 O                 -0.02959110    0.85294908   -1.08466189
 S                 -1.43585721    0.52100630   -1.15872994

 1 2 2.0 6 1.0 8 1.0
 2 3 1.0 9 1.0
 3 4 1.5 10 1.5
 4 5 1.0 11 1.5
 5 6 2.0 12 1.0
 6 13 1.0
 7 10 1.0
 8
 9
 10 17 0.5
 11 14 1.0 15 0.5
 12
 13
 14
 15 17 1.5
 16 17 2.0
 17

