%chk=C:\Users\al6323\OneDrive - Imperial College London\Desktop\TSR20251114\TS_endo_unfreeze_Berny_opt+freq.chk
# opt=(calcfc,tight,ts,noeigen) freq rpm6 nosymm geom=connectivity
scf=(xqc,verytight)

Title Card Required

0 1
 C                 -5.63720617   -1.68650423    0.20886835
 C                 -4.29411524   -1.78325858    0.17594805
 C                 -3.40665423   -0.62274577   -0.04936280
 C                 -4.06799124    0.70793440    0.03360342
 C                 -5.54896560    0.73610229   -0.06613046
 C                 -6.27735353   -0.39349266    0.02789338
 H                 -1.51540499   -1.64222169   -0.47833680
 H                 -6.27877908   -2.55147759    0.35982302
 H                 -3.78786793   -2.74298321    0.29340974
 C                 -2.13858616   -0.80632306   -0.35146395
 C                 -3.52112587    1.88823497    0.20930015
 H                 -6.01715226    1.70734161   -0.21367591
 H                 -7.36683407   -0.37532083   -0.03333385
 H                 -3.50411986    2.92830584    0.33663198
 O                 -1.52723394    1.94230283    0.35583416
 O                 -0.84350848    1.32052048   -2.06060566
 S                 -0.72908691    1.11473828   -0.63927649

 1 2 2.0 6 1.0 8 1.0
 2 3 1.0 9 1.0
 3 4 1.5 10 1.5
 4 5 1.0 11 1.5
 5 6 2.0 12 1.0
 6 13 1.0
 7 10 1.0
 8
 9
 10 17 0.5
 11 14 1.0 15 0.5
 12
 13
 14
 15 17 1.5
 16 17 2.0
 17

