%mem=6GB
%chk=C:\Users\al6323\OneDrive - Imperial College London\Desktop\TSR20251114\TS_freeze_opt+freq.chk
%nprocshared=8
# opt=(calcfc,tight,modredundant,maxcycles=200,maxstep=5) freq rpm6 nosymm
geom=connectivity scf=(xqc,verytight)

Title Card Required

0 1
 C                 -5.61262333   -1.73423433    0.09501923
 C                 -4.27246897   -1.80483956   -0.06107044
 C                 -3.41063785   -0.52767309   -0.11342639
 C                 -4.05365755    0.75590323    0.00692073
 C                 -5.58741461    0.77339928    0.18322855
 C                 -6.30676364   -0.37223829    0.22399754
 H                 -1.63318301   -1.71290708   -0.35987714
 H                 -6.19270895   -2.63270898    0.12884184
 H                 -3.80209233   -2.76180825   -0.14970885
 C                 -2.03058717   -0.72276818   -0.27866822
 C                 -3.44811046    2.06037376   -0.01493977
 H                 -6.09278579    1.71203530    0.27521971
 H                 -7.36870679   -0.32766654    0.34724571
 H                 -4.10995066    2.89438115    0.09135798
 O                 -1.50513111    2.48686978   -0.22214106
 O                  0.43157272    1.14514995    0.69964621
 S                 -0.56703027    1.17673602   -0.37809147

 1 2 2.0 6 1.0 8 1.0
 2 9 1.0 3 1.0
 3 4 1.5 10 1.5
 4 5 1.0 11 1.5
 5 6 2.0 12 1.0
 6 13 1.0
 7 10 1.0
 8
 9
 10 17 0.5
 11 14 1.0 15 0.5
 12
 13
 14
 15 17 1.5
 16 17 2.0
 17

B 11 15 F
B 10 17 F

