%mem=6GB
%chk=C:\Users\al6323\OneDrive - Imperial College London\Desktop\TSR20251114\TS_endo_freeze_opt+freq.chk
%nprocshared=8
# opt=(calcfc,tight,modredundant,maxcycles=200,maxstep=5) freq rpm6 nosymm
geom=connectivity scf=(xqc,verytight)

Title Card Required

0 1
 C                 -5.67161186   -1.75124551    0.13534856
 C                 -4.33389166   -1.84249794   -0.03060465
 C                 -3.45532992   -0.57815737   -0.10947446
 C                 -4.07991172    0.71575735   -0.00360578
 C                 -5.61175127    0.75685979    0.18501958
 C                 -6.34615696   -0.37810195    0.24921265
 H                 -1.69625258   -1.79113646   -0.35276850
 H                 -6.26349410   -2.64110095    0.18762395
 H                 -3.87726372   -2.80703237   -0.10847795
 C                 -2.07946461   -0.79455985   -0.28288578
 C                 -3.45701125    2.01136381   -0.05058920
 H                 -6.10359152    1.70359439    0.26679214
 H                 -7.40632287   -0.31717465    0.38049901
 H                 -4.10663986    2.85585272    0.04800673
 O                 -1.51022098    2.40809971   -0.27995415
 O                  0.12798582    1.10760484   -1.70323108
 S                 -0.59105178    1.08302754   -0.42178461

 1 2 2.0 6 1.0 8 1.0
 2 9 1.0 3 1.0
 3 4 1.5 10 1.5
 4 5 1.0 11 1.5
 5 6 2.0 12 1.0
 6 13 1.0
 7 10 1.0
 8
 9
 10 17 0.5
 11 14 1.0 15 0.5
 12
 13
 14
 15 17 1.5
 16 17 2.0
 17

B 11 15 F
B 10 17 F

