%chk=C:\Users\al6323\OneDrive - Imperial College London\Desktop\TSR20251114\TS_unfreeze_Berny_opt+freq.chk
# opt=(calcfc,tight,ts,noeigen) freq rpm6 nosymm geom=connectivity
scf=(xqc,verytight)

Title Card Required

0 1
 C                 -5.59692456   -1.66470443    0.01952051
 C                 -4.28261949   -1.73319265   -0.26727315
 C                 -3.37699603   -0.56771046   -0.18578645
 C                 -4.05070531    0.75045562   -0.03244252
 C                 -5.46744944    0.73994056    0.41112422
 C                 -6.18797242   -0.39852602    0.42185700
 H                 -1.42925671   -1.56730556   -0.27120363
 H                 -6.24861560   -2.53389424   -0.02936861
 H                 -3.80973480   -2.67325676   -0.55678103
 C                 -2.07192503   -0.73969040   -0.19903083
 C                 -3.57018548    1.95067398   -0.25963756
 H                 -5.89639189    1.69065295    0.72165423
 H                 -7.23302044   -0.40812302    0.73622906
 H                 -3.59229772    2.99638452   -0.32483597
 O                 -1.66642032    2.05734351   -0.86321156
 O                 -0.43115348    1.31589295    1.28565883
 S                 -0.65062520    1.19306371   -0.13291825

 1 2 2.0 6 1.0 8 1.0
 2 3 1.0 9 1.0
 3 4 1.5 10 1.5
 4 5 1.0 11 1.5
 5 6 2.0 12 1.0
 6 13 1.0
 7 10 1.0
 8
 9
 10 17 0.5
 11 14 1.0 15 0.5
 12
 13
 14
 15 17 1.5
 16 17 2.0
 17

