%chk=C:\Users\al6323\OneDrive - Imperial College London\Desktop\TSR20251114\TS_endo_Berny_opt+freq.chk
# opt=(calcfc,tight,ts,noeigen) freq rpm6 nosymm geom=connectivity scf

Title Card Required

0 1
 C                 -5.61461014   -1.65686408    0.24855618
 C                 -4.28400655   -1.75441489   -0.23749348
 C                 -3.63044971   -0.56453051   -0.42443718
 C                 -4.25233350    0.69997783   -0.14853453
 C                 -5.52847183    0.79791989    0.33182279
 C                 -6.21382903   -0.43187663    0.52317176
 H                 -1.89408038   -0.23050092   -1.79446114
 H                 -6.17351048   -2.57799307    0.41440608
 H                 -3.82900634   -2.72005193   -0.43015653
 C                 -2.34038895    0.05211874   -0.84982711
 C                 -3.01469316    1.46732964   -0.57333434
 H                 -6.00496589    1.74578678    0.56338405
 H                 -7.23487473   -0.40433578    0.90132955
 H                 -3.09135232    2.25511909   -1.32118467
 O                 -1.83797918    2.04407064    0.93753099
 S                 -0.84033261    0.54247173    0.95831695
 O                 -1.06443551   -0.30714438    2.10888689

 1 2 2.0 6 1.0 8 1.0
 2 3 1.0 9 1.0
 3 4 1.5 10 1.5
 4 5 1.0 11 1.5
 5 6 2.0 12 1.0
 6 13 1.0
 7 10 1.0
 8
 9
 10 16 0.5
 11 14 1.0 15 0.5
 12
 13
 14
 15 16 1.5
 16 17 1.0
 17

