%chk=C:\Users\al6323\OneDrive - Imperial College London\Desktop\TSR20251115\Exercise 2\13-dioxole_opt+freq_PM6.chk
# opt=(tight,cartesian,maxcycles=200,maxstep=2) freq pm6 geom=connectivity
scf=(xqc,verytight)

Title Card Required

0 1
 C                  0.00002616    1.00552784    0.67275466
 O                  0.00002616   -0.30762679    1.16663347
 C                 -0.00016483   -1.18328923    0.00000000
 C                  0.00002616    1.00552784   -0.67275466
 H                  0.00017444    1.73864445    1.44981017
 H                  0.93308349   -1.76081921    0.00000000
 H                 -0.93317586   -1.76103987    0.00000000
 H                  0.00017444    1.73864445   -1.44981017
 O                  0.00002616   -0.30762679   -1.16663347

 1 2 1.0 4 2.0 5 1.0
 2 3 1.0
 3 6 1.0 7 1.0 9 1.0
 4 8 1.0 9 1.0
 5
 6
 7
 8
 9

