%mem=6GB
%chk=C:\Users\al6323\OneDrive - Imperial College London\Desktop\TSR20251113\13-dioxole_opt+freq_PM6.chk
%nprocshared=8
# opt=(cartesian,maxcycles=200) freq pm6 geom=connectivity scf=(xqc,tight)

Title Card Required

0 1
 C                 -0.66803841   -0.12415806   -0.43204962
 O                  0.53819040   -0.26181586    0.31534299
 C                  1.01840255    1.08783795    0.16590708
 C                 -1.06083178    1.15928597   -0.41911378
 H                 -1.17969781   -0.92105272   -0.93010941
 H                  1.78759837    1.31611256    0.87381137
 H                  1.40616422    1.21647848   -0.82302795
 H                 -1.93362656    1.54239348   -0.90528032
 O                 -0.13401357    1.93459636    0.33748064

 1 2 1.0 4 2.0 5 1.0
 2 3 1.0
 3 6 1.0 7 1.0 9 1.0
 4 8 1.0 9 1.0
 5
 6
 7
 8
 9

