%chk=C:\Users\al6323\OneDrive - Imperial College London\Desktop\TSR20251113\cyclohexadiene_opt+freq_PM6.chk
# opt=(calcfc,tight,cartesian,maxcycles=200,maxstep=2) freq rpm6 nosymm
geom=connectivity scf=(xqc,verytight)

Title Card Required

0 1
 C                 -2.08945457    0.91602116    0.80107796
 C                 -0.88049366    0.69639031    0.22858251
 C                 -0.35476298    1.68789315   -0.82346514
 C                 -0.73901662    3.13161572   -0.44539242
 C                 -2.24649572    3.23057345   -0.15558379
 C                 -2.86816464    2.20732670    0.48008048
 H                 -2.50772901    0.18880710    1.46523622
 H                  0.71119007    1.62501504   -0.89195190
 H                 -0.21140376    3.42623014    0.43762910
 H                 -2.79392411    4.10729680   -0.43231167
 H                 -3.89416703    2.30052736    0.76910076
 H                 -0.47404488    3.77874758   -1.25527534
 H                 -0.79126485    1.43327494   -1.76661713
 H                 -0.30841272   -0.16951099    0.48904047

 1 2 2.0 6 1.0 7 1.0
 2 3 1.0 14 1.0
 3 4 1.0 8 1.0 13 1.0
 4 5 1.0 9 1.0 12 1.0
 5 6 2.0 10 1.0
 6 11 1.0
 7
 8
 9
 10
 11
 12
 13
 14

