%chk=C:\Users\al6323\OneDrive - Imperial College London\Desktop\TSR20251115\Exercise 2\Product_PM6_exo.chk
# opt=(calcfc,tight,maxcycles=200,maxstep=4) freq pm6 nosymm
geom=connectivity scf=(xqc,tight)

Title Card Required

0 1
 C                 -0.77797420    0.61072628    0.43093193
 C                  0.70666377    0.32281664    0.33599387
 C                  0.91407777    1.51800591   -0.62002683
 C                 -0.60073344    1.68505713   -0.89195247
 C                 -1.30698258    2.66265580    0.08897913
 C                 -1.38445581    1.80801861    1.16167378
 H                  1.24534934    2.41216437   -0.13459940
 H                 -1.62197924    3.67832220   -0.02975959
 H                 -1.75229533    1.93364774    2.15857468
 H                  1.33831825    0.33828240    1.19951771
 C                 -1.74857656   -0.11672872   -0.54822631
 C                 -1.34364661    0.69716609   -1.76003580
 O                 -0.44876568   -0.14494346   -2.48804218
 O                 -1.45222995   -1.45778838   -0.86350165
 C                 -0.16524219   -1.14852575   -1.48110902
 H                  0.28193698   -2.01701359   -1.91775495
 H                  0.49863953   -0.74978045   -0.74275731
 H                 -2.10254304    1.04247060   -2.43066312
 H                 -2.74600945    0.00682308   -0.18112606
 H                  0.82062761   -0.64061559   -0.11534922
 H                  1.59813583    1.31854841   -1.41826318

 1 2 1.0 6 1.0 11 1.0
 2 3 1.0 10 1.0 20 1.0
 3 4 1.0 7 1.0 21 1.0
 4 5 1.0 12 1.0
 5 6 2.0 8 1.0
 6 9 1.0
 7
 8
 9
 10
 11 12 1.0 14 1.0 19 1.0
 12 13 1.0 18 1.0
 13 15 1.0
 14 15 1.0
 15 16 1.0 17 1.0
 16
 17
 18
 19
 20
 21

