%chk=C:\Users\al6323\OneDrive - Imperial College London\Desktop\TSR20251115\Exercise 2\Product_PM6_endo.chk
# opt=(calcfc,tight,maxcycles=200,maxstep=4) freq pm6 nosymm
geom=connectivity scf=(xqc,tight)

TS(Berny)_PM6_endo

0 1
 C                 -0.22786930    0.44422683    0.34693398
 C                  0.57024599    1.54433464    1.09650196
 C                  0.67836120    2.45176183   -0.15448062
 C                 -0.36503974    1.62630921   -0.87350214
 C                 -1.85826950    1.60672109   -0.51526221
 C                 -1.76248115    0.61576806    0.42444167
 H                  0.53666936    3.49349042    0.04457961
 H                 -2.69154548    2.16823475   -0.88303054
 H                 -2.50373702    0.12825638    1.02258221
 H                 -0.07277184    1.92970773    1.85999109
 C                  0.45477552   -0.46431116   -0.64183756
 C                  0.11381316    0.45580484   -1.79037672
 O                 -0.98505547   -0.15937262   -2.45946519
 O                 -0.15413873   -1.70191102   -0.93104739
 C                 -1.39281010   -1.10920881   -1.43947831
 H                 -1.89598414   -0.59848473   -0.64520077
 H                 -2.04719237   -1.85239222   -1.84489446
 H                  0.87515333    0.65022752   -2.51664180
 H                  1.48061597   -0.57521203   -0.35854909
 H                  1.51233783    1.32726087    1.55502343
 H                  1.59392783    2.36255409   -0.70099661

 1 2 1.0 6 1.0 11 1.0
 2 3 1.0 10 1.0 20 1.0
 3 4 1.0 7 1.0 21 1.0
 4 5 1.0 12 1.0
 5 6 2.0 8 1.0
 6 9 1.0
 7
 8
 9
 10
 11 12 1.0 14 1.0 19 1.0
 12 13 1.0 18 1.0
 13 15 1.0
 14 15 1.0
 15 16 1.0 17 1.0
 16
 17
 18
 19
 20
 21

