%chk=C:\Users\al6323\OneDrive - Imperial College London\Desktop\TSR20251113\Exercise 2\Product_PM6_exo.chk
# opt=(calcfc,tight,maxcycles=200,maxstep=4) freq pm6 nosymm
geom=connectivity scf=(xqc,tight)

Title Card Required

0 1
 C                 -0.59717761    0.60906500    0.51471224
 C                  0.91801408    0.60967814    0.27853911
 C                  0.77056050    1.27926013   -1.07296302
 C                 -0.70977199    1.59778518   -0.82607710
 C                 -1.20683127    2.68481380    0.11432317
 C                 -1.15117863    1.88534641    1.22300066
 H                  1.40998125    1.40120512   -1.92218061
 H                 -1.49980290    3.70271064   -0.03718140
 H                 -1.40244364    2.07472489    2.24569401
 H                  1.75081526    0.33246656    0.89049983
 C                 -1.57960195   -0.32714893   -0.16737698
 C                 -1.71368437    0.49741210   -1.30381578
 O                 -1.24635046   -0.25781465   -2.42140183
 O                 -1.02163569   -1.57003866   -0.58765972
 C                 -0.28819802   -1.07129769   -1.72005551
 H                  0.08580693   -1.86462677   -2.33295785
 H                  0.53585610   -0.47239715   -1.39271329
 H                 -2.69168065    0.88098807   -1.50702199
 H                 -2.46460955   -0.50867979    0.40595373

 1 2 1.0 6 1.0 11 1.0
 2 3 1.0 10 1.0
 3 4 1.0 7 1.0
 4 5 1.0 12 1.0
 5 6 2.0 8 1.0
 6 9 1.0
 7
 8
 9
 10
 11 12 1.5 14 1.0 19 1.0
 12 13 1.0 18 1.0
 13 15 1.0
 14 15 1.0
 15 16 1.0 17 1.0
 16
 17
 18
 19

