%chk=C:\Users\al6323\OneDrive - Imperial College London\Desktop\TSR20251113\Product_PM6_endo.chk
# opt=(calcfc,tight,maxcycles=200,maxstep=4) freq pm6 nosymm
geom=connectivity scf=(xqc,tight)

TS(Berny)_PM6_endo

0 1
 C                 -0.33842845    0.39792332    0.36456483
 C                  0.43652469    1.43732292    1.21665311
 C                  0.71362922    2.37945022    0.03527686
 C                 -0.27725337    1.62936594   -0.83139020
 C                 -1.80568662    1.66092898   -0.61842016
 C                 -1.85760569    0.63681016    0.29496660
 H                  1.39478314    3.18372259   -0.14931811
 H                 -2.57218805    2.27141648   -1.04816494
 H                 -2.67814017    0.16873776    0.79749162
 H                  0.61767085    1.50606225    2.26896531
 C                  0.40564433   -0.50535569   -0.59374718
 C                  0.23675663    0.47316974   -1.73855408
 O                 -0.81259622   -0.05988335   -2.54346597
 O                 -0.22644259   -1.69788704   -0.99838528
 C                 -1.37299974   -1.02287113   -1.61113023
 H                 -1.93349197   -0.51475299   -0.85445036
 H                 -2.01500843   -1.71597612   -2.11345514
 H                  1.07977442    0.65240721   -2.37266364
 H                  1.38933244   -0.67774429   -0.20963798

 1 2 1.0 6 1.0 11 1.0
 2 3 1.0 10 1.0
 3 4 1.0 7 1.0
 4 5 1.0 12 1.0
 5 6 2.0 8 1.0
 6 9 1.0
 7
 8
 9
 10
 11 12 1.0 14 1.0 19 1.0
 12 13 1.0 18 1.0
 13 15 1.0
 14 15 1.0
 15 16 1.0 17 1.0
 16
 17
 18
 19

