%chk=C:\Users\al6323\OneDrive - Imperial College London\Desktop\TSR20251113\TS(Berny)_PM6_endo.chk
# opt=(calcfc,tight,ts,modredundant,maxcycles=200,noeigen,maxstep=2) freq
pm6 nosymm geom=connectivity scf=(xqc,tight)

TS(Berny)_PM6_endo

0 1
 C                 -0.36381493    0.98620252    0.83260709
 C                  0.84742461    1.86496377    1.16144134
 C                  0.98340403    2.49658108   -0.22480125
 C                 -0.37889201    2.03678631   -0.76439453
 C                 -1.57863921    2.48459654   -0.22349052
 C                 -1.60107572    1.67447495    0.95069637
 H                  1.79029314    3.00899783   -0.70569525
 H                 -2.27664974    3.21197072   -0.58211025
 H                 -2.34533757    1.60815852    1.71657915
 H                  1.35488496    2.04175921    2.08671284
 C                 -0.19730581   -0.80828778   -0.58317739
 C                 -0.24003745   -0.06630800   -1.74905275
 O                 -1.38966298   -0.48391324   -2.48293706
 O                 -1.31928183   -1.68898938   -0.59132515
 C                 -1.39592621   -1.84704558   -2.01943004
 H                 -2.27939826   -2.37060166   -2.31987331
 H                 -0.54378371   -2.37805894   -2.38926510
 H                  0.62533093   -0.18147314   -2.36774053
 H                  0.69274357   -1.38696824   -0.44960705

 1 2 1.0 6 1.5 11 0.5
 2 3 1.0 10 1.0
 3 4 1.0 7 1.0
 4 5 1.5 12 0.5
 5 6 1.5 8 1.0
 6 9 1.0
 7
 8
 9
 10
 11 12 1.5 14 1.0 19 1.0
 12 13 1.0 18 1.0
 13 15 1.0
 14 15 1.0
 15 16 1.0 17 1.0
 16
 17
 18
 19

D 14 11 1 6 F

