%mem=6GB
%chk=C:\Users\al6323\OneDrive - Imperial College London\Desktop\TSR20251113\TS(Berny)_PM6_exo.chk
%nprocshared=8
# opt=(calcfc,tight,ts,maxcycles=200,noeigen) freq pm6 nosymm
geom=connectivity scf=(xqc,tight)

Title Card Required

0 1
 C                 -0.17122458    0.54500160    1.20476262
 C                  1.36077119    0.56469097    1.13493625
 C                  1.46786521    1.46099827   -0.08315059
 C                 -0.00270666    1.36525752   -0.49687062
 C                 -0.83524765    2.29364468    0.18225050
 C                 -0.91748889    1.68760359    1.46929973
 H                  2.27009704    2.04992367   -0.47620399
 H                 -1.27438169    3.20248861   -0.17280443
 H                 -1.40807793    2.01039385    2.36374304
 H                  2.09521678    0.03812181    1.70783640
 C                 -1.07636865   -1.18005894   -0.06903686
 H                 -2.08049994   -1.41994301    0.21216766
 C                 -0.91204307   -0.57242723   -1.32181786
 H                 -1.80430359   -0.40584064   -1.88840418
 O                 -0.27554661   -2.36274902   -0.07128758
 O                 -0.00512415   -1.37084026   -2.08097099
 C                  0.74135598   -1.90692524   -0.97797491
 H                  1.39015592   -2.70114377   -1.28322163
 H                  1.33033881   -1.13995621   -0.51998174

 1 2 1.0 6 1.5 11 0.5
 2 3 1.0 10 1.0
 3 4 1.0 7 1.0
 4 5 1.5 13 0.5
 5 6 1.5 8 1.0
 6 9 1.0
 7
 8
 9
 10
 11 12 1.0 15 1.0 13 1.5
 12
 13 14 1.0 16 1.0
 14
 15 17 1.0
 16 17 1.0
 17 18 1.0 19 1.0
 18
 19

