%chk=C:\Users\al6323\OneDrive - Imperial College London\Desktop\TSR20251113\TS(Berny)_PM6_endo_unfreeze.chk
# opt=(calcfc,tight,ts,maxcycles=200,noeigen,maxstep=1) freq pm6 nosymm
geom=connectivity scf=(xqc,tight)

TS(Berny)_PM6_endo

0 1
 C                 -0.42208978    1.06318445    0.80542519
 C                  0.82478378    1.65326754    1.09278494
 C                  0.95599984    2.26419862   -0.17630018
 C                 -0.27727563    1.75062399   -0.67792624
 C                 -1.69928495    1.84300769   -0.63917266
 C                 -1.81155844    1.22341242    0.62401025
 H                  1.70331361    2.87340121   -0.62302125
 H                 -2.40161280    2.21398602   -1.34661817
 H                 -2.64189724    0.96241269    1.23914095
 H                  1.43836218    1.64087314    1.96358204
 C                  0.32251142   -0.70602048   -0.66984426
 C                  0.13793459    0.12813337   -1.76219688
 O                 -1.02935390   -0.29688027   -2.44892050
 O                 -0.69770541   -1.63864927   -0.56650679
 C                 -1.63641378   -1.34835811   -1.65322308
 H                 -2.56545085   -0.96881716   -1.20797119
 H                 -1.72120704   -2.24676982   -2.27715863
 H                  0.80317022    0.64854591   -2.43028063
 H                  1.10204930   -0.85670571    0.04933293

 1 2 1.0 6 1.5 11 0.5
 2 3 1.0 10 1.0
 3 4 1.0 7 1.0
 4 5 1.5 12 0.5
 5 6 1.5 8 1.0
 6 9 1.0
 7
 8
 9
 10
 11 12 1.5 14 1.0 19 1.0
 12 13 1.0 18 1.0
 13 15 1.0
 14 15 1.0
 15 16 1.0 17 1.0
 16
 17
 18
 19

