%chk=C:\Users\al6323\OneDrive - Imperial College London\Desktop\TSR20251115\Exercise 2\TS_Berny_PM6_exo.chk
# opt=(calcfc,tight,ts,maxcycles=200,maxstep=4,noeigen) freq pm6 nosymm
geom=connectivity scf=(xqc,tight)

Title Card Required

0 1
 C                 -0.80805987    0.71966074    0.50991834
 C                  0.70615366    0.55441933    0.69390720
 C                  0.97725114    1.48480753   -0.54274916
 C                 -0.53054294    1.67208356   -0.75603796
 C                 -1.27601166    2.72955026    0.03737766
 C                 -1.50972427    1.92745746    1.10351532
 H                  1.51484262    2.40794713   -0.30380158
 H                 -1.48596273    3.73766883   -0.22472941
 H                 -1.98439609    2.02710197    2.04894662
 H                  1.08798284    0.94301404    1.64337575
 C                 -1.99165713   -0.62094559   -0.77143726
 C                 -1.71774383    0.31905159   -2.02089311
 O                 -0.63171332   -0.08889799   -2.56091014
 O                 -1.03361860   -1.46814980   -0.72760565
 C                 -0.19875935   -1.29413209   -1.89319621
 H                 -0.41013535   -2.13315934   -2.57076670
 H                  0.84836031   -1.18355938   -1.58046594
 H                 -2.54444515    0.75359685   -2.58960606
 H                 -3.01241437   -0.85237619   -0.45490577
 H                  1.05511639   -0.47770627    0.57697150
 H                  1.48458093    0.99622456   -1.38217704

 1 2 1.0 6 1.5 11 1.5
 2 3 1.0 10 1.0 20 1.0
 3 4 1.0 7 1.0 21 1.0
 4 5 1.5 12 0.5
 5 6 1.5 8 1.0
 6 9 1.0
 7
 8
 9
 10
 11 12 1.0 14 1.5 19 1.0
 12 13 1.5 18 1.0
 13 15 1.0
 14 15 1.0
 15 16 1.0 17 1.0
 16
 17
 18
 19
 20
 21

