%chk=C:\Users\al6323\OneDrive - Imperial College London\Desktop\TSR20251115\Exercise 2\TS_Berny_PM6_endo.chk
# opt=(calcfc,tight,ts,maxcycles=200,maxstep=4,noeigen) freq pm6 nosymm
geom=connectivity scf=(xqc,tight)

TS(Berny)_PM6_endo

0 1
 C                 -0.23830425    0.60762451    0.48317784
 C                  0.75780329    1.61806197    1.07491019
 C                  0.59155495    2.54698122   -0.17953574
 C                 -0.40868082    1.55969446   -0.80255520
 C                 -1.86826165    1.62605692   -0.40126654
 C                 -1.72475159    0.82411643    0.68172641
 H                  0.16584046    3.53132977    0.04391654
 H                 -2.66369968    2.15123757   -0.87084744
 H                 -2.35704528    0.43770109    1.44325735
 H                  0.42722562    2.07099820    2.01601209
 C                  0.53312260   -0.99151968   -0.81591357
 C                  0.36490853   -0.05146971   -2.08540731
 O                 -0.81560481   -0.24134218   -2.52902098
 O                 -0.56959636   -1.61594063   -0.67272033
 C                 -1.46486640   -1.27553792   -1.75540656
 H                 -2.40863661   -0.89084408   -1.34546273
 H                 -1.54221787   -2.16070296   -2.40061943
 H                  1.21802504    0.18095586   -2.72827592
 H                  1.50504511   -1.42294845   -0.56224675
 H                  1.77022406    1.22994832    1.22091800
 H                  1.50790279    2.69570489   -0.75844365

 1 2 1.0 6 1.5 11 0.5
 2 3 1.0 10 1.0 20 1.0
 3 4 1.0 7 1.0 21 1.0
 4 5 1.5 12 0.5
 5 6 1.5 8 1.0
 6 9 1.0
 7
 8
 9
 10
 11 12 1.0 14 1.5 19 1.0
 12 13 1.5 18 1.0
 13 15 1.0
 14 15 1.0
 15 16 1.0 17 1.0
 16
 17
 18
 19
 20
 21

