%chk=C:\Users\al6323\OneDrive - Imperial College London\Desktop\TSR202511112\butadiene_opt.chk
# opt=(calcfc,tight,cartesian,maxstep=4) freq b3lyp/6-31g(d) nosymm
geom=connectivity scf=(xqc,verytight)

butadiene_opt

0 1
 C                 -0.87232760   -0.23379849    0.12914419
 H                 -1.83530116    0.04192259    0.56843686
 C                 -0.57282026   -1.50246841   -0.15158356
 H                 -1.24736050   -2.32538564    0.03408690
 H                  0.36475437   -1.80987841   -0.59347313
 C                  0.02458458    0.90285048   -0.12927415
 H                 -0.46749121    1.77531758   -0.56857240
 C                  1.32808416    0.90661368    0.15163916
 H                  1.97157330    1.75406124   -0.03391694
 H                  1.84508476    0.06619783    0.59351306

 1 2 1.0 3 2.0 6 1.0
 2
 3 4 1.0 5 1.0
 4
 5
 6 7 1.0 8 2.0
 7
 8 9 1.0 10 1.0
 9
 10

