%chk=C:\Users\al6323\OneDrive - Imperial College London\Desktop\TSR202511112\TS_guess_opt_TS(Berny).chk
# opt=(calcfc,tight,ts,maxcycles=200,noeigen) b3lyp/6-31g(d) nosymm
scf=tight

TS Benry DFT

0 1
 C                 -0.68772280    0.92898593    0.06872783
 C                  0.04718780   -0.17868566   -0.34959434
 C                  1.44448495   -0.18106125   -0.33418644
 C                  2.17377780    0.92409805    0.10030779
 C                  1.42027595    1.23158681    2.17103381
 C                  0.02091372    1.23391160    2.15561083
 H                 -0.32691833    1.93070403   -0.13971633
 H                 -1.76955117    0.85535733    0.15200023
 H                 -0.46825823   -1.12925023   -0.47899107
 H                  1.95941340   -1.13337854   -0.45225595
 H                  1.82108667    1.92704038   -0.11597542
 H                  3.25325304    0.84677050    0.20736405
 H                  1.95234729    2.17298550    2.27795779
 H                  1.94757272    0.36589773    2.55702665
 H                 -0.51024645    2.17707321    2.25086946
 H                 -0.51761551    0.36996551    2.52982203

