%chk=C:\Users\al6323\OneDrive - Imperial College London\Desktop\TSR202511112\TS_guess_opt_TS(Berny)_IRS_DFT_reactants.chk
# opt=(calcfc,tight) freq b3lyp/6-31g(d) nosymm scf=(xqc,tight)

TS Benry DFT_reactants

0 1
 C                 -1.54432134    0.03092361   -1.30698091
 C                 -0.71626641   -1.02275053   -1.30758482
 C                  0.74249392   -0.97282833   -1.48527863
 C                  1.54202048    0.04546374   -1.14042288
 C                  0.65082723    0.85251693    2.58250135
 C                 -0.67303427    0.93313919    2.45969574
 H                 -1.18464007    1.04357398   -1.47173946
 H                 -2.61340769   -0.08929284   -1.15662935
 H                 -1.14281665   -2.01979820   -1.19187349
 H                  1.19306750   -1.86359388   -1.92424009
 H                  1.15812154    0.93581918   -0.64905554
 H                  2.61155475    0.01235947   -1.32765963
 H                  1.19518446    1.42289076    3.33268378
 H                  1.24398158    0.21012434    1.93634205
 H                 -1.27063881    1.57432439    3.10408590
 H                 -1.21087353    0.36321199    1.70557474

