%chk=C:\Users\al6323\OneDrive - Imperial College London\Desktop\TSR20251111\TS_guess_IRC.chk
# opt=(calcfc,tight,modredundant,maxcycles=200,noeigen) b3lyp/6-31g(d)
nosymm scf=tight

TS IRC PM6

0 1
 C                 -0.67000000    1.16000000    0.00000000
 C                  0.00000000    0.00000000    0.00000000
 C                  1.47000000    0.00000000    0.00000000
 C                  2.14000000    1.16000000    0.00000000
 C                  1.40500000    1.16000000    2.10000000
 C                  0.06500000    1.16000000    2.10000000
 H                 -1.23100000    2.09500000    0.00000000
 H                 -1.43000000    0.38000000    0.00000000
 H                 -0.54500000   -0.94400000    0.00000000
 H                  2.01500000   -0.94400000    0.00000000
 H                  2.70100000    2.09500000    0.00000000
 H                  2.90000000    0.38000000    0.00000000
 H                  1.95000000    2.10400000    2.10000000
 H                  1.95000000    0.21600000    2.10000000
 H                 -0.48000000    2.10400000    2.10000000
 H                 -0.48000000    0.21600000    2.10000000

B 4 5 F
B 1 6 F

