%chk=C:\Users\al6323\OneDrive - Imperial College London\Desktop\TSR202511112\TS_guess_opt_TS(Berny)_IRS_DFT_product.chk
# opt=(calcfc,tight) freq b3lyp/6-31g(d) nosymm scf=(xqc,tight)

TS Benry DFT product opt

0 1
 C                 -1.40378631    0.27394251   -0.26388579
 C                 -0.67862723   -0.83114589   -0.99138870
 C                  0.68007303   -0.85616598   -0.96190364
 C                  1.41713411    0.23548392   -0.22612196
 C                  0.76523414    0.54915524    1.14740524
 C                 -0.79177330    0.49464003    1.14120195
 H                 -1.32780448    1.20902319   -0.84147059
 H                 -2.47477116    0.05859602   -0.17572388
 H                 -1.25145552   -1.59145383   -1.52032667
 H                  1.24681724   -1.63575550   -1.46893287
 H                  1.40643440    1.15009149   -0.83969256
 H                  2.47394982   -0.01960566   -0.08799091
 H                  1.11154792    1.53365032    1.48358852
 H                  1.14310513   -0.17452237    1.87859561
 H                 -1.20791799    1.41025716    1.57806781
 H                 -1.12371196   -0.33139309    1.78071565

