%chk=C:\Users\al6323\OneDrive - Imperial College London\Desktop\TSR202511112\TS_guess_opt_TS(Berny)_IRS_PM6.chk
# irc=(calcall,maxpoints=100) pm6 nosymm scf=xqc

TS Benry PM6

0 1
 C                 -0.69386756    0.92512225    0.04880472
 C                  0.04228925   -0.17528661   -0.35127130
 C                  1.44942690   -0.17769887   -0.33577377
 C                  2.18038413    0.92017354    0.08048506
 C                  1.41330145    1.23660971    2.19574071
 C                  0.02733350    1.23885637    2.18041273
 H                 -0.32135239    1.92943546   -0.11735467
 H                 -1.77537428    0.85406314    0.13550484
 H                 -0.46793661   -1.13013648   -0.46967789
 H                  1.95884784   -1.13429721   -0.44299848
 H                  1.81507739    1.92576311   -0.09373325
 H                  3.25947091    0.84539406    0.19093577
 H                  1.95677586    2.17435104    2.26844050
 H                  1.95099617    0.36365605    2.54829113
 H                 -0.51455703    2.17835684    2.24123341
 H                 -0.52081302    0.36764030    2.52096322

