%chk=C:\Users\al6323\OneDrive - Imperial College London\Desktop\TSR202511112\TS_guess_opt_TS(Berny)_IRS_PM6_prep.chk
# opt=(calcfc,tight,ts,noeigentest) freq pm6 nosymm scf=tight

TS Benry PM6

0 1
 C                 -0.69386751    0.92512218    0.04880472
 C                  0.04228925   -0.17528660   -0.35127127
 C                  1.44942680   -0.17769886   -0.33577375
 C                  2.18038397    0.92017348    0.08048505
 C                  1.41330135    1.23660962    2.19574055
 C                  0.02733350    1.23885628    2.18041258
 H                 -0.32135237    1.92943532   -0.11735466
 H                 -1.77537415    0.85406308    0.13550483
 H                 -0.46793658   -1.13013640   -0.46967786
 H                  1.95884770   -1.13429713   -0.44299845
 H                  1.81507726    1.92576297   -0.09373324
 H                  3.25947067    0.84539400    0.19093576
 H                  1.95677572    2.17435088    2.26844034
 H                  1.95099603    0.36365602    2.54829095
 H                 -0.51455699    2.17835668    2.24123325
 H                 -0.52081298    0.36764027    2.52096304

