%chk=C:\Users\al6323\OneDrive - Imperial College London\Desktop\TSR20251110\butadiene_opt+freq.chk
# freq pm6 nosymm geom=connectivity opt=cartesian scf=tight

butadiene_opt

0 1
 C                 -0.87238829   -0.23377521    0.12909341
 H                 -1.83554431    0.04192362    0.56801283
 C                 -0.57276584   -1.50245610   -0.15145881
 H                 -1.24736754   -2.32536446    0.03398534
 H                  0.36499773   -1.80990450   -0.59297023
 C                  0.02454584    0.90289955   -0.12914430
 H                 -0.46755764    1.77550797   -0.56814117
 C                  1.32810390    0.90655256    0.15149327
 H                  1.97157564    1.75402475   -0.03395249
 H                  1.84518098    0.06602424    0.59308213

 1 2 1.0 3 2.0 6 1.0
 2
 3 4 1.0 5 1.0
 4
 5
 6 7 1.0 8 2.0
 7
 8 9 1.0 10 1.0
 9
 10

