%chk=C:\Users\al6323\OneDrive - Imperial College London\Desktop\TSR20251111\Exercise 1\cyclohexene_opt+freq.chk
# opt=(calcfc,tight,cartesian,recalcfc=10) freq pm6 nosymm
geom=connectivity scf=tight

cyclohexene_opt+freq

0 1
 C                 -0.43466016    0.13358204   -0.05663210
 C                  1.06161143    0.05156350   -0.14005134
 C                  1.74796080    1.35457566    0.30035088
 C                  1.03927389    2.57607534   -0.30027879
 C                 -0.43309630    2.62586039    0.13846617
 C                 -1.10368741    1.28585265    0.05356435
 H                 -0.95015047   -0.82373583   -0.10817595
 H                  1.43054672   -0.79172082    0.47652313
 H                  1.73613932    1.42420633    1.40514593
 H                  1.55645067    3.50484499    0.00030620
 H                 -0.50214436    2.99094193    1.18494594
 H                 -2.19068995    1.31283869    0.10401469
 H                 -0.98177330    3.36468547   -0.47836273
 H                  1.09515700    2.53201879   -1.40503519
 H                  2.81130241    1.34337250    0.00099795
 H                  1.34549751   -0.18865028   -1.18640721

 1 2 1.0 6 2.0 7 1.0
 2 3 1.0 8 1.0 16 1.0
 3 4 1.0 9 1.0 15 1.0
 4 5 1.0 10 1.0 14 1.0
 5 6 1.0 11 1.0 13 1.0
 6 12 1.0
 7
 8
 9
 10
 11
 12
 13
 14
 15
 16

