%mem=6GB
%chk=C:\Users\al6323\OneDrive - Imperial College London\Desktop\TSR20251110\ethene_opt+freq.chk
%nprocshared=8
# opt freq pm6 geom=connectivity

ethene_opt+freq

0 1
 C                 -2.64150939   -0.37735848    0.00000000
 H                 -2.10834565   -1.30506341    0.00000000
 H                 -3.71150939   -0.37735848    0.00000000
 C                 -1.96623509    0.79761881    0.00000000
 H                 -2.49939883    1.72532373   -0.00000000
 H                 -0.89623509    0.79761881    0.00000000

 1 2 1.0 3 1.0 4 2.0
 2
 3
 4 5 1.0 6 1.0
 5
 6

