%chk=C:\Users\al6323\OneDrive - Imperial College London\Desktop\TSR20251111\TS_guess_opt_TS(Berny)_Check.chk
# freq pm6 opt=(maxcycles=200,noeigen) scf=(xqc,tight)

TS (Berny)

0 1
 C                 -0.67178524    0.95410643    0.10772943
 C                  0.03391228   -0.17321529   -0.25954267
 C                  1.44500207   -0.17424395   -0.25259006
 C                  2.14868908    0.95205205    0.12161926
 C                  1.41976873    1.19952817    2.09127618
 C                  0.03802951    1.20054581    2.08446463
 H                 -0.30004715    1.95315496   -0.09757422
 H                 -1.74296589    0.91672115    0.25513643
 H                 -0.48341816   -1.12265555   -0.39486339
 H                  1.96225598   -1.12443909   -0.38280937
 H                  1.78044573    1.95163927   -0.08732713
 H                  3.21830878    0.91310848    0.27957717
 H                  1.97614115    2.12484809    2.17301391
 H                  1.96984614    0.32116444    2.40670667
 H                 -0.51775642    2.12668654    2.16072091
 H                 -0.51642489    0.32300027    2.39446407

