%chk=C:\Users\al6323\OneDrive - Imperial College London\Desktop\TSR202511112\Exercise 1\PM6\TS_guess_opt_TS(Berny)_IRC_Reactant.chk
# opt=(calcfc,tight,maxcycles=200,cartesian) freq pm6 nosymm
scf=(xqc,tight)

TS (Berny)_IRC

0 1
 C                 -1.42699520    0.03777789   -1.00254199
 C                 -0.64992527   -0.93134517   -1.48696635
 C                  0.79114800   -1.04819710   -1.21668975
 C                  1.64749611   -0.02721663   -1.26674907
 C                  0.45269616    0.99306997    2.11466880
 C                 -0.76993137    0.81328373    2.59934096
 H                 -1.06329031    0.83290015   -0.36457409
 H                 -2.48640532    0.10304962   -1.20278699
 H                 -1.05494567   -1.72482264   -2.12166227
 H                  1.12495921   -2.06236436   -0.97877741
 H                  1.35429801    0.98515021   -1.50900634
 H                  2.70611459   -0.13191708   -1.07950466
 H                  1.15604919    1.70916247    2.51721058
 H                  0.84843855    0.43558320    1.27326819
 H                 -1.16722693    1.36655719    3.43932428
 H                 -1.47084158    0.09435278    2.19510054

