%chk=C:\Users\al6323\OneDrive - Imperial College London\Desktop\TSR20251111\TS_guess_opt_TS(Berny)_IRC_Product.chk
# opt=(calcfc,tight,cartesian,maxcycles=200) freq pm6 nosymm
scf=(xqc,tight)

TS (Berny)_IRC_Product_Opt+Freq

0 1
 C                 -1.48506988   -0.11892459    0.00348880
 C                 -0.63311077   -0.66447248   -1.10510646
 C                  0.69937842   -0.55812246   -1.12962795
 C                  1.49195382    0.14735623   -0.06821616
 C                  0.67792007    0.38770092    1.21342400
 C                 -0.73158535    0.89459825    0.87970723
 H                 -2.39585248    0.35337493   -0.41472414
 H                 -1.83984135   -0.96628467    0.62746994
 H                 -1.18019374   -1.17548259   -1.89527726
 H                  1.29062005   -0.97196421   -1.94453159
 H                  1.84620675    1.11730672   -0.47683692
 H                  2.40458257   -0.43284222    0.17252113
 H                  1.20049743    1.11132101    1.86447037
 H                  0.60714110   -0.55503326    1.78944945
 H                 -0.66155465    1.86313962    0.34814476
 H                 -1.29822581    1.08964151    1.80766400

