%chk=C:\Users\al6323\OneDrive - Imperial College London\Desktop\TSR20251111\TS_guess_opt_TS(Berny).chk
# opt=(calcfc,tight,ts,maxcycles=200,noeigen) pm6 nosymm scf=(xqc,tight)

TS (Berny)

0 1
 C                 -0.69278115    0.94340537    0.06192656
 C                  0.01761522   -0.16479776   -0.25600103
 C                  1.46127914   -0.16584964   -0.24888406
 C                  2.17011687    0.94131949    0.07604599
 C                  1.40522027    1.21108783    2.14785600
 C                  0.05203696    1.21210700    2.14117413
 H                 -0.29614933    1.94875297   -0.03048352
 H                 -1.76596821    0.91817232    0.19584807
 H                 -0.47293163   -1.13131401   -0.37434391
 H                  1.95156114   -1.13307928   -0.36239629
 H                  1.77587589    1.94724209   -0.02025533
 H                  3.24189359    0.91452682    0.22054203
 H                  1.98427482    2.12547273    2.15380095
 H                  1.97820377    0.32284819    2.38306036
 H                 -0.52566351    2.12736766    2.14139815
 H                 -0.52458298    0.32473911    2.37071281

