%chk=C:\Users\al6323\OneDrive - Imperial College London\Desktop\TSR20251115\Exercise 3\DA reaction\product_endo_opt+freq.chk
# opt=(tight,maxstep=5) freq rpm6 nosymm geom=connectivity scf

Title Card Required

0 1
 C                 -5.64603280   -1.72238996    0.05962432
 C                 -4.38581493   -1.78732100   -0.44701579
 C                 -3.52997448   -0.51449386   -0.45194856
 C                 -4.06633449    0.67422575   -0.14385145
 C                 -5.44406449    0.75058803    0.52771011
 C                 -6.18822039   -0.38427402    0.62524765
 H                 -1.84325678   -0.15125765   -1.75543091
 H                 -6.26140074   -2.59759188    0.07524151
 H                 -3.99437605   -2.71039004   -0.82067226
 C                 -2.02766442   -0.48843430   -0.75682902
 C                 -3.23524165    1.91643335   -0.53186305
 H                 -5.81880749    1.68152459    0.89895776
 H                 -7.15315244   -0.35172252    1.08649222
 H                 -3.86197790    2.78366911   -0.52990877
 O                 -2.11467541    2.11024274    0.32894419
 S                 -1.36036223    0.62439563    0.47249944
 O                 -1.70279172   -0.02905253    1.97071422
 H                 -2.84584946    1.75144040   -1.51474201
 H                 -1.59459387   -1.45957111   -0.63748413

 1 2 2.0 6 1.0 8 1.0
 2 3 1.0 9 1.0
 3 4 2.0 10 1.0
 4 5 1.0 11 1.0
 5 6 2.0 12 1.0
 6 13 1.0
 7 10 1.0
 8
 9
 10 16 1.0 19 1.0
 11 14 1.0 15 1.0 18 1.0
 12
 13
 14
 15 16 1.0
 16 17 1.0
 17
 18
 19

