%chk=C:\Users\al6323\OneDrive - Imperial College London\Desktop\TSR20251115\Exercise 3\DA reaction\product_exo_opt+freq.chk
# opt=(calcfc,tight,cartesian,maxstep=1) freq rpm6 nosymm
geom=connectivity scf=(tight,xqc)

Title Card Required

0 1
 C                 -4.59622326   -1.53023416    0.47771379
 C                 -3.20518836   -1.60253441    0.42757178
 C                 -2.42853074   -0.42972210    0.39445079
 C                 -3.06501028    0.82426076    0.41877609
 C                 -4.46850271    0.88430036    0.47114748
 C                 -5.23096648   -0.28244571    0.49941093
 H                 -0.59402788   -0.42959420   -0.72044769
 H                 -5.18946356   -2.44348544    0.49882259
 H                 -2.71458155   -2.57469291    0.40685318
 C                 -0.94817755   -0.53748829    0.32768390
 C                 -2.32570846    2.13740984    0.38891116
 H                 -4.96828173    1.85291179    0.48703411
 H                 -6.31740695   -0.22396141    0.53717088
 H                 -2.63051652    2.78112253    1.24135195
 S                 -0.26273590    0.79347011    1.37021178
 O                  1.17897556    0.84924931    1.13473602
 O                 -0.90428149    2.07053955    0.39948751
 H                 -2.52982218    2.68151819   -0.56216645
 H                 -0.56340729   -1.51821515    0.65743341

 1 2 1.5 6 1.5 8 1.0
 2 3 1.5 9 1.0
 3 4 1.5 10 1.0
 4 5 1.5 11 1.0
 5 6 1.5 12 1.0
 6 13 1.0
 7 10 1.0
 8
 9
 10 15 1.0 19 1.0
 11 14 1.0 17 1.0 18 1.0
 12
 13
 14
 15 16 2.0 17 1.0
 16
 17
 18
 19

