%chk=C:\Users\al6323\OneDrive - Imperial College London\Desktop\TSR20251115\Exercise 3\DA reaction\product_endo_opt+freq.chk
# opt=(tight,maxstep=5) freq rpm6 nosymm geom=connectivity scf

Title Card Required

0 1
 C                 -5.69086707   -1.74305395    0.04655624
 C                 -4.35822912   -1.84983299   -0.15868109
 C                 -3.48884062   -0.58510910   -0.29141194
 C                 -4.05309345    0.66189604   -0.10946561
 C                 -5.58131142    0.76230766    0.07388108
 C                 -6.34364717   -0.35513552    0.14491050
 H                 -1.90554614   -0.83336942   -1.70573975
 H                 -6.29088668   -2.62439402    0.13664593
 H                 -3.90704125   -2.81695852   -0.23612603
 C                 -2.00385721   -0.75184396   -0.64338928
 C                 -3.24298420    2.00400005   -0.05195978
 H                 -6.04315296    1.72427488    0.15275737
 H                 -7.40257398   -0.27138916    0.27359832
 H                 -3.02856387    2.22150684    0.97352290
 O                 -1.99657853    1.93712034   -0.75975200
 S                 -1.15035496    0.67821587   -0.09976787
 O                 -1.14424893    0.78286296    1.36608883
 H                 -3.84108030    2.78485030   -0.47321260
 H                 -1.60173913   -1.62992756   -0.18276986

 1 2 2.0 6 1.0 8 1.0
 2 3 1.0 9 1.0
 3 4 2.0 10 1.0
 4 5 1.0 11 1.0
 5 6 2.0 12 1.0
 6 13 1.0
 7 10 1.0
 8
 9
 10 16 1.0 19 1.0
 11 14 1.0 15 1.0 18 1.0
 12
 13
 14
 15 16 1.0
 16 17 2.0
 17
 18
 19

