%chk=C:\Users\al6323\OneDrive - Imperial College London\Desktop\TSR20251115\Exercise 3\DA reaction\TS_exo_Berny_IRC_product.chk
# opt=tight freq rpm6 nosymm geom=connectivity scf=(tight,xqc)

Title Card Required

0 1
 C                 -2.54019167   -1.87042424   -0.42359128
 C                 -1.15033509   -1.97605173   -0.34627662
 C                 -0.35303807   -0.81980110   -0.34902512
 C                 -0.96917526    0.44569209   -0.41729921
 C                 -2.36396969    0.54310928   -0.49154222
 C                 -3.14831489   -0.61241852   -0.50072775
 H                  1.55458368   -0.76430459   -1.31887090
 H                 -3.15323459   -2.77085697   -0.42432499
 H                 -0.68481738   -2.95815502   -0.28980807
 C                  1.12556809   -0.92083899   -0.30495844
 C                 -0.10704272    1.67439634   -0.35090642
 H                 -2.83978855    1.52202186   -0.53895519
 H                 -4.23225628   -0.53420515   -0.56275877
 H                 -0.67571472    2.59982026   -0.12859329
 S                  1.87558905    0.29779523    0.85610639
 O                  3.12002407    0.68349378    0.18854397
 O                  0.77147444    1.56356043    0.77534519
 H                  0.48541023    1.82815490   -1.27299909
 H                  1.47631079   -1.92549339   -0.00505391

 1 2 1.5 6 1.5 8 1.0
 2 3 1.5 9 1.0
 3 4 1.5 10 1.0
 4 5 1.5 11 1.0
 5 6 1.5 12 1.0
 6 13 1.0
 7 10 1.0
 8
 9
 10 15 1.0 19 1.0
 11 14 1.0 17 1.0 18 1.0
 12
 13
 14
 15 16 2.0 17 1.0
 16
 17
 18
 19

