%chk=C:\Users\al6323\OneDrive - Imperial College London\Desktop\TSR20251115\Exercise 3\DA reaction\TS_endo_Berny_IRC.chk
# irc=(calcall,maxpoints=200) rpm6 nosymm geom=connectivity scf=(tight,xqc)

Title Card Required

0 1
 C                 -5.61571226   -1.61359324   -0.10340792
 C                 -4.24111418   -1.70766521   -0.31063218
 C                 -3.41406867   -0.56990130   -0.23106764
 C                 -3.99895391    0.67932155    0.06388683
 C                 -5.38913269    0.76125637    0.27120121
 C                 -6.19379030   -0.37320585    0.18908761
 H                 -1.78496518   -1.21117038   -1.47589779
 H                 -6.23925102   -2.50361131   -0.16890380
 H                 -3.79951135   -2.67674595   -0.53775635
 C                 -1.95016053   -0.77859727   -0.47031740
 C                 -3.25042304    1.96188656    0.17913274
 H                 -5.84401229    1.72511070    0.49927792
 H                 -7.26689958   -0.29465999    0.35173461
 H                 -3.21943923    2.43303170    1.17956867
 O                 -1.97274029    1.73309186   -1.15434919
 S                 -1.02585128    0.78661870   -0.33114204
 O                 -1.67661556    1.36882900    0.97561632
 H                 -3.46452493    2.73445992   -0.58316728
 H                 -1.54398097   -1.50757867    0.25714618

 1 2 2.0 6 1.0 8 1.0
 2 3 1.0 9 1.0
 3 4 1.5 10 1.5
 4 5 1.0 11 1.5
 5 6 2.0 12 1.0
 6 13 1.0
 7 10 1.0
 8
 9
 10 16 0.5 19 1.0
 11 14 1.0 15 0.5 18 1.0
 12
 13
 14
 15 16 1.0
 16 17 1.0
 17
 18
 19

