%chk=C:\Users\al6323\OneDrive - Imperial College London\Desktop\TSR20251115\Exercise 3\DA reaction\TS_endo_Berny_opt+freq.chk
# opt=(calcfc,tight,ts,noeigen,maxstep=5) freq rpm6 nosymm
geom=connectivity scf=tight

Title Card Required

0 1
 C                 -5.68129335   -1.65671980    0.01151947
 C                 -4.31299426   -1.74465254   -0.23591143
 C                 -3.51455436   -0.58541475   -0.29698642
 C                 -4.11390500    0.67046222   -0.10499725
 C                 -5.49553933    0.74816602    0.14595333
 C                 -6.27696448   -0.40422272    0.20249938
 H                 -1.91459677   -0.86331648   -1.68510009
 H                 -6.28649205   -2.56061543    0.05833676
 H                 -3.85501625   -2.72177350   -0.38099991
 C                 -2.06315351   -0.75400425   -0.59096132
 C                 -3.35434218    1.96998503   -0.11366586
 H                 -5.96180423    1.72104705    0.30036264
 H                 -7.34528534   -0.33157092    0.39673403
 H                 -3.29550951    2.39369023    0.91268299
 O                 -1.49228333    1.84420155   -0.83263411
 S                 -0.71119778    1.09035345    0.13743444
 O                 -0.72637722    1.09882257    1.60131811
 H                 -3.81873359    2.71547591   -0.79415780
 H                 -1.67109951   -1.68303652   -0.13141636

 1 2 2.0 6 1.0 8 1.0
 2 3 1.0 9 1.0
 3 4 1.5 10 1.5
 4 5 1.0 11 1.5
 5 6 2.0 12 1.0
 6 13 1.0
 7 10 1.0
 8
 9
 10 16 0.5 19 1.0
 11 14 1.0 15 0.5 18 1.0
 12
 13
 14
 15 16 1.0
 16 17 1.0
 17
 18
 19

