%chk=C:\Users\al6323\OneDrive - Imperial College London\Desktop\TSR20251115\Exercise 3\DA reaction\TS_exo_Berny_IRC.chk
# irc=(calcall,maxpoints=100) rpm6 nosymm geom=connectivity scf=(tight,xqc)

Title Card Required

0 1
 C                 -4.44489782   -1.51130181    0.74047987
 C                 -3.13026775   -1.56012947    0.41896664
 C                 -2.37811837   -0.35272298    0.08537821
 C                 -3.09320563    0.91891499    0.12293810
 C                 -4.50057554    0.90618977    0.50633520
 C                 -5.15040945   -0.24773362    0.78910550
 H                 -0.47240442    0.34266709   -0.66639825
 H                 -5.00913421   -2.41492352    0.97190454
 H                 -2.59078395   -2.50557774    0.37945982
 C                 -1.02128093   -0.40921190   -0.10890969
 C                 -2.42770652    2.10579616   -0.04070930
 H                 -5.01186269    1.86877160    0.54525484
 H                 -6.20398374   -0.26238442    1.05890527
 H                 -2.88492455    3.05981999    0.19459620
 S                 -0.34616443    0.75109077    1.81885855
 O                  1.07022350    0.66634764    1.65928514
 O                 -1.21539050    1.90183492    1.63407995
 H                 -1.46929409    2.19989467   -0.53816788
 H                 -0.47478628   -1.34206677   -0.05294560

 1 2 1.5 6 1.5 8 1.0
 2 3 1.5 9 1.0
 3 4 1.5 10 1.5
 4 5 1.5 11 1.5
 5 6 1.5 12 1.0
 6 13 1.0
 7 10 1.0
 8
 9
 10 15 0.5 19 1.0
 11 14 1.0 17 0.5 18 1.0
 12
 13
 14
 15 16 2.0 17 1.0
 16
 17
 18
 19

