%chk=C:\Users\al6323\OneDrive - Imperial College London\Desktop\TSR20251115\Exercise 3\DA reaction\TS_exo_Berny_opt+freq.chk
# opt=(calcfc,tight,ts,maxstep=5,noeigen) freq rpm6 nosymm
geom=connectivity scf=(tight,xqc)

Title Card Required

0 1
 C                 -4.59622221   -1.53023571    0.47771921
 C                 -3.20519053   -1.60253612    0.42756668
 C                 -2.42853044   -0.42972359    0.39444574
 C                 -3.06500879    0.82425768    0.41877740
 C                 -4.46850289    0.88429881    0.47115481
 C                 -5.23096615   -0.28244492    0.49942194
 H                 -0.59401837   -0.42956615   -0.72044521
 H                 -5.18946563   -2.44348251    0.49883216
 H                 -2.71458027   -2.57469177    0.40683469
 C                 -0.94817992   -0.53748802    0.32767916
 C                 -2.32570456    2.13740772    0.38890121
 H                 -4.96827762    1.85291114    0.48704045
 H                 -6.31740425   -0.22396497    0.53718830
 H                 -2.63053212    2.78114183    1.24131816
 S                 -0.04644977    1.21345490    1.69920446
 O                  1.39526001    1.26922304    1.46373771
 O                 -0.32796937    2.04343120    0.40381782
 H                 -2.52980898    2.68149902   -0.56218797
 H                 -0.56341185   -1.51821652    0.65740969

 1 2 1.5 6 1.5 8 1.0
 2 3 1.5 9 1.0
 3 4 1.5 10 1.5
 4 5 1.5 11 1.5
 5 6 1.5 12 1.0
 6 13 1.0
 7 10 1.0
 8
 9
 10 15 0.5 19 1.0
 11 14 1.0 17 0.5 18 1.0
 12
 13
 14
 15 16 2.0 17 1.0
 16
 17
 18
 19

