%chk=C:\Users\al6323\OneDrive - Imperial College London\Desktop\TSR20251115\Exercise 3\DA reaction\TS_endo_Berny_IRC_product.chk
# opt=tight freq rpm6 nosymm geom=connectivity scf=tight

Title Card Required

0 1
 C                 -2.44134375   -1.98808944    0.17265526
 C                 -1.06867419   -2.04165299   -0.05891341
 C                 -0.30826569   -0.86044740   -0.17437169
 C                 -0.95533093    0.38156011   -0.06796203
 C                 -2.33970644    0.42515323    0.17540834
 C                 -3.08074444   -0.74862087    0.29588387
 H                  1.32317807   -1.31609431   -1.47689875
 H                 -3.01608793   -2.90860628    0.26117169
 H                 -0.57664115   -3.00891444   -0.14778022
 C                  1.15457652   -1.00637970   -0.42489973
 C                 -0.24086588    1.70191268   -0.17461223
 H                 -2.84015628    1.38857913    0.27101059
 H                 -4.15155512   -0.70280531    0.48436323
 H                 -0.10806144    2.16034319    0.82964022
 O                  1.03883374    1.61343612   -0.80130332
 S                  2.13089094    0.50693338   -0.14299554
 O                  2.20433268    0.71538401    1.30548944
 H                 -0.77825081    2.41431675   -0.83588631
 H                  1.57573936   -1.81538850    0.20675135

 1 2 1.5 6 1.5 8 1.0
 2 3 1.5 9 1.0
 3 4 1.5 10 1.0
 4 5 1.5 11 1.0
 5 6 1.5 12 1.0
 6 13 1.0
 7 10 1.0
 8
 9
 10 16 1.0 19 1.0
 11 14 1.0 15 1.0 18 1.0
 12
 13
 14
 15 16 1.0
 16 17 2.0
 17
 18
 19

